s td 29 12 40
b 1 3 26
b 2 5 25 31
b 3 25 37
b 4 4 6 22
b 5 5 24 25
b 6 7 15 24 28
b 7 14 19 29 35
b 8 1 2 6 9 11 13 14 22 30 33 35
b 9 1 2 9 11 13 14 20 22 24 30 33 35
b 10 1 2 11 13 14 19 20 22 24 30 35
b 11 1 2 11 13 19 20 22 24 25 30
b 12 1 2 11 18 19 20 24 25 30
b 13 1 11 18 19 20 25 27 30
b 14 8 18 19 20 27 30
b 15 1 25 27 32
b 16 2 19 20 26
b 17 2 9 13 14 16 20 22 24 30 33 35
b 18 2 9 10 13 16 22 33
b 19 9 13 14 15 16 20 22 24 33 35
b 20 9 12 14 15
b 21 13 15 16 22 24 28 35
b 22 13 16 22 24 28 36
b 23 2 16 23 33
b 24 9 11 20 22 33 39
b 25 1 2 6 11 13 17 30 33 35
b 26 6 11 13 17 21 30 33
b 27 6 13 17 21 34
b 28 21 30 33 38
b 29 2 17 33 35 40
1 16
2 5
3 11
4 8
5 11
6 21
7 10
8 9
8 25
9 10
9 17
9 24
10 11
10 16
11 12
12 13
13 14
13 15
17 18
17 19
17 23
19 20
19 21
21 22
25 26
25 29
26 27
26 28
